sat-intances/13.param.solution
language ESSENCE' 1.0
letting actionFrom be [0, 2, 3, 2, 3, 2, 3, 2, 3, 2, 3, 3, 3, 2]
letting actionTo be [2, 3, 2, 3, 2, 1, 2, 3, 2, 1, 2, 2, 2, 1]
letting actionTypes be [1, 4, 5, 4, 5, 2, 5, 4, 5, 2, 5, 5, 5, 2]
letting pointers be [[0, 1, 1, 1, 1, 1, 1, 1, 1, 1, 1, 1, 1, 1, 1;int(0..14)], 
[0, 0, 0, 0, 0, 0, 1, 1, 1, 1, 2, 2, 2, 2, 3;int(0..14)];int(0..1)]
letting statePlaces be [[-1, 3, 3, 6, 6, 12, 12, 18, 18, 36, 36, 54, 72, 90, 90;int(0..14)], 
[-1, -1, 3, 3, 6, 6, 6, 6, 18, 18, 18, 18, 18, 18, 18;int(0..14)];int(2..3)]
